40
1 0 40
2 0 42
2 1 71
3 0 33
3 1 91
3 2 75
4 0 76
4 1 99
4 2 70
4 3 56
5 0 67
5 1 53
5 2 28
5 3 40
5 4 11
6 0 54
6 1 41
6 2 76
6 3 70
6 4 63
6 5 53
7 0 42
7 1 39
7 2 78
7 3 27
7 4 77
7 5 36
7 6 42
8 0 13
8 1 10
8 2 23
8 3 7
8 4 3
8 5 23
8 6 70
8 7 22
9 0 3
9 1 84
9 2 76
9 3 78
9 4 56
9 5 19
9 6 27
9 7 23
9 8 93
10 0 45
10 1 47
10 2 24
10 3 87
10 4 63
10 5 56
10 6 62
10 7 57
10 8 68
10 9 79
11 0 61
11 1 29
11 2 65
11 3 28
11 4 93
11 5 54
11 6 59
11 7 78
11 8 29
11 9 50
11 10 74
12 0 7
12 1 2
12 2 7
12 3 28
12 4 49
12 5 19
12 6 78
12 7 52
12 8 13
12 9 33
12 10 40
12 11 42
13 0 41
13 1 54
13 2 6
13 3 71
13 4 18
13 5 81
13 6 13
13 7 16
13 8 61
13 9 59
13 10 21
13 11 60
13 12 37
14 0 9
14 1 7
14 2 84
14 3 2
14 4 81
14 5 15
14 6 60
14 7 55
14 8 29
14 9 20
14 10 2
14 11 38
14 12 4
14 13 13
15 0 40
15 1 47
15 2 14
15 3 3
15 4 34
15 5 24
15 6 8
15 7 94
15 8 21
15 9 34
15 10 68
15 11 6
15 12 78
15 13 71
15 14 24
16 0 19
16 1 54
16 2 28
16 3 28
16 4 73
16 5 68
16 6 31
16 7 40
16 8 55
16 9 14
16 10 23
16 11 31
16 12 44
16 13 7
16 14 45
16 15 91
17 0 12
17 1 45
17 2 63
17 3 1
17 4 95
17 5 94
17 6 10
17 7 9
17 8 67
17 9 15
17 10 68
17 11 12
17 12 1
17 13 76
17 14 4
17 15 55
17 16 3
18 0 34
18 1 26
18 2 66
18 3 30
18 4 81
18 5 31
18 6 12
18 7 42
18 8 72
18 9 49
18 10 43
18 11 55
18 12 93
18 13 28
18 14 54
18 15 86
18 16 40
18 17 97
19 0 75
19 1 6
19 2 3
19 3 90
19 4 81
19 5 49
19 6 84
19 7 56
19 8 85
19 9 35
19 10 97
19 11 51
19 12 36
19 13 12
19 14 24
19 15 100
19 16 56
19 17 24
19 18 23
20 0 88
20 1 74
20 2 51
20 3 15
20 4 92
20 5 56
20 6 96
20 7 97
20 8 87
20 9 22
20 10 96
20 11 58
20 12 74
20 13 3
20 14 87
20 15 89
20 16 20
20 17 91
20 18 66
20 19 22
21 0 1
21 1 79
21 2 6
21 3 38
21 4 93
21 5 78
21 6 32
21 7 23
21 8 58
21 9 84
21 10 59
21 11 62
21 12 2
21 13 17
21 14 54
21 15 13
21 16 21
21 17 51
21 18 68
21 19 87
21 20 55
22 0 24
22 1 49
22 2 26
22 3 7
22 4 79
22 5 44
22 6 69
22 7 13
22 8 88
22 9 32
22 10 31
22 11 61
22 12 47
22 13 62
22 14 46
22 15 91
22 16 60
22 17 85
22 18 47
22 19 35
22 20 38
22 21 91
23 0 75
23 1 72
23 2 84
23 3 7
23 4 61
23 5 6
23 6 41
23 7 16
23 8 97
23 9 92
23 10 24
23 11 85
23 12 8
23 13 79
23 14 68
23 15 27
23 16 90
23 17 30
23 18 43
23 19 43
23 20 61
23 21 40
23 22 49
24 0 96
24 1 57
24 2 75
24 3 69
24 4 25
24 5 70
24 6 87
24 7 42
24 8 13
24 9 91
24 10 93
24 11 9
24 12 44
24 13 22
24 14 7
24 15 12
24 16 26
24 17 75
24 18 72
24 19 66
24 20 66
24 21 48
24 22 38
24 23 38
25 0 24
25 1 72
25 2 69
25 3 91
25 4 69
25 5 48
25 6 79
25 7 85
25 8 32
25 9 38
25 10 35
25 11 39
25 12 24
25 13 63
25 14 78
25 15 98
25 16 53
25 17 26
25 18 40
25 19 62
25 20 66
25 21 67
25 22 68
25 23 66
25 24 10
26 0 17
26 1 75
26 2 12
26 3 73
26 4 7
26 5 88
26 6 11
26 7 46
26 8 41
26 9 58
26 10 72
26 11 39
26 12 59
26 13 46
26 14 41
26 15 19
26 16 26
26 17 15
26 18 95
26 19 65
26 20 38
26 21 72
26 22 28
26 23 55
26 24 30
26 25 65
27 0 88
27 1 30
27 2 17
27 3 5
27 4 58
27 5 100
27 6 12
27 7 78
27 8 84
27 9 87
27 10 4
27 11 76
27 12 95
27 13 22
27 14 79
27 15 42
27 16 68
27 17 37
27 18 28
27 19 28
27 20 26
27 21 20
27 22 70
27 23 97
27 24 92
27 25 30
27 26 83
28 0 25
28 1 15
28 2 80
28 3 25
28 4 81
28 5 45
28 6 44
28 7 81
28 8 98
28 9 38
28 10 39
28 11 81
28 12 46
28 13 4
28 14 90
28 15 59
28 16 88
28 17 32
28 18 90
28 19 57
28 20 79
28 21 49
28 22 91
28 23 99
28 24 20
28 25 17
28 26 3
28 27 73
29 0 99
29 1 55
29 2 93
29 3 9
29 4 72
29 5 42
29 6 90
29 7 44
29 8 60
29 9 47
29 10 53
29 11 99
29 12 80
29 13 92
29 14 67
29 15 16
29 16 19
29 17 36
29 18 47
29 19 32
29 20 34
29 21 30
29 22 83
29 23 82
29 24 25
29 25 11
29 26 62
29 27 69
29 28 16
30 0 96
30 1 33
30 2 30
30 3 62
30 4 21
30 5 12
30 6 86
30 7 23
30 8 32
30 9 38
30 10 75
30 11 18
30 12 6
30 13 33
30 14 82
30 15 29
30 16 84
30 17 19
30 18 25
30 19 10
30 20 23
30 21 3
30 22 63
30 23 43
30 24 14
30 25 24
30 26 32
30 27 28
30 28 15
30 29 36
31 0 23
31 1 2
31 2 90
31 3 58
31 4 68
31 5 37
31 6 76
31 7 14
31 8 85
31 9 48
31 10 92
31 11 64
31 12 97
31 13 6
31 14 70
31 15 79
31 16 51
31 17 59
31 18 93
31 19 9
31 20 68
31 21 87
31 22 33
31 23 68
31 24 17
31 25 52
31 26 58
31 27 17
31 28 99
31 29 17
31 30 30
32 0 17
32 1 79
32 2 41
32 3 16
32 4 6
32 5 92
32 6 85
32 7 2
32 8 92
32 9 19
32 10 73
32 11 49
32 12 82
32 13 27
32 14 6
32 15 64
32 16 97
32 17 81
32 18 9
32 19 55
32 20 24
32 21 1
32 22 70
32 23 95
32 24 14
32 25 15
32 26 96
32 27 29
32 28 33
32 29 32
32 30 96
32 31 74
33 0 13
33 1 27
33 2 72
33 3 18
33 4 72
33 5 17
33 6 57
33 7 12
33 8 92
33 9 85
33 10 65
33 11 97
33 12 69
33 13 55
33 14 13
33 15 32
33 16 96
33 17 38
33 18 36
33 19 7
33 20 13
33 21 12
33 22 18
33 23 42
33 24 59
33 25 87
33 26 99
33 27 27
33 28 4
33 29 74
33 30 29
33 31 52
33 32 27
34 0 70
34 1 90
34 2 8
34 3 7
34 4 18
34 5 93
34 6 93
34 7 4
34 8 2
34 9 28
34 10 29
34 11 61
34 12 85
34 13 35
34 14 76
34 15 75
34 16 21
34 17 2
34 18 22
34 19 80
34 20 69
34 21 22
34 22 49
34 23 63
34 24 2
34 25 64
34 26 28
34 27 14
34 28 2
34 29 36
34 30 98
34 31 54
34 32 65
34 33 49
35 0 8
35 1 14
35 2 64
35 3 8
35 4 47
35 5 53
35 6 51
35 7 89
35 8 85
35 9 38
35 10 81
35 11 75
35 12 99
35 13 17
35 14 5
35 15 68
35 16 56
35 17 71
35 18 55
35 19 95
35 20 79
35 21 15
35 22 16
35 23 67
35 24 22
35 25 90
35 26 74
35 27 78
35 28 18
35 29 64
35 30 62
35 31 40
35 32 89
35 33 32
35 34 61
36 0 84
36 1 29
36 2 92
36 3 19
36 4 91
36 5 90
36 6 17
36 7 2
36 8 28
36 9 42
36 10 79
36 11 77
36 12 84
36 13 82
36 14 68
36 15 8
36 16 61
36 17 19
36 18 26
36 19 7
36 20 43
36 21 53
36 22 88
36 23 60
36 24 55
36 25 25
36 26 95
36 27 47
36 28 92
36 29 13
36 30 33
36 31 91
36 32 60
36 33 92
36 34 86
36 35 40
37 0 86
37 1 95
37 2 45
37 3 43
37 4 68
37 5 28
37 6 80
37 7 80
37 8 78
37 9 34
37 10 80
37 11 66
37 12 47
37 13 19
37 14 17
37 15 19
37 16 79
37 17 62
37 18 89
37 19 93
37 20 90
37 21 86
37 22 48
37 23 80
37 24 57
37 25 73
37 26 7
37 27 57
37 28 25
37 29 24
37 30 12
37 31 29
37 32 20
37 33 16
37 34 85
37 35 80
37 36 40
38 0 1
38 1 96
38 2 54
38 3 47
38 4 50
38 5 28
38 6 4
38 7 74
38 8 40
38 9 14
38 10 5
38 11 5
38 12 26
38 13 89
38 14 1
38 15 22
38 16 58
38 17 70
38 18 40
38 19 1
38 20 33
38 21 58
38 22 19
38 23 5
38 24 89
38 25 41
38 26 31
38 27 27
38 28 75
38 29 9
38 30 7
38 31 51
38 32 67
38 33 46
38 34 73
38 35 51
38 36 7
38 37 42
39 0 78
39 1 47
39 2 87
39 3 34
39 4 59
39 5 84
39 6 99
39 7 85
39 8 52
39 9 98
39 10 30
39 11 50
39 12 59
39 13 96
39 14 72
39 15 90
39 16 35
39 17 56
39 18 70
39 19 33
39 20 56
39 21 21
39 22 45
39 23 91
39 24 75
39 25 61
39 26 34
39 27 87
39 28 90
39 29 98
39 30 66
39 31 50
39 32 61
39 33 47
39 34 54
39 35 77
39 36 67
39 37 1
39 38 55
